15 40
25
3 11 12 11
3 13 9 3
2 9 5 0
2 7 0 27
3 9 6 29
3 7 12 22
2 11 4 16
2 13 6 16
4 11 0 16
4 13 8 16
5 3 0 13
2 11 9 29
2 2 5 9
3 11 12 0
3 2 6 38
4 5 11 29
4 6 11 34
2 12 7 3
2 1 7 15
5 3 7 0
5 13 0 0
4 12 2 27
4 1 2 39
2 5 5 11
2 6 0 34
